NAME : pr107
TYPE : TOUR
DIMENSION :107
MAX_COMPUTATION_TIME : 00h10mn0s
COMPUTATION_TIME : 00h10mn0s
MAX_COST : NOT_AVAILABLE
COST : 481710.0281
START_NODE : NOT_AVAILABLE
TOUR_SECTION
1 
72 
29 
15 
4 
79 
71 
98 
105 
101 
70 
85 
89 
76 
52 
94 
67 
75 
66 
95 
102 
81 
90 
17 
30 
7 
37 
68 
57 
54 
45 
21 
6 
38 
107 
91 
106 
13 
58 
93 
16 
46 
22 
50 
97 
55 
49 
32 
19 
59 
103 
65 
77 
62 
34 
60 
11 
20 
44 
92 
61 
56 
74 
69 
25 
8 
18 
96 
41 
5 
27 
23 
104 
88 
80 
28 
31 
51 
87 
73 
14 
53 
64 
83 
3 
36 
9 
43 
82 
40 
63 
84 
78 
42 
47 
39 
12 
10 
99 
24 
2 
26 
100 
86 
35 
48 
33 
EOF